p edge 99
e 0 43
e 0 49
e 0 50
e 0 66
e 0 81
e 1 20
e 1 22
e 1 41
e 1 59
e 1 92
e 2 41
e 2 68
e 2 71
e 2 76
e 2 79
e 3 28
e 3 38
e 3 54
e 3 67
e 3 83
e 3 95
e 4 8
e 4 10
e 4 16
e 4 17
e 4 18
e 4 49
e 5 13
e 5 36
e 5 69
e 5 74
e 6 10
e 6 16
e 6 29
e 6 45
e 6 75
e 7 56
e 7 69
e 7 77
e 7 80
e 8 17
e 8 18
e 8 78
e 8 93
e 8 94
e 9 33
e 9 58
e 9 62
e 9 73
e 9 91
e 10 16
e 10 18
e 10 45
e 11 15
e 11 34
e 11 82
e 11 88
e 11 90
e 12 38
e 12 96
e 12 97
e 13 29
e 13 36
e 13 80
e 14 53
e 14 59
e 14 62
e 14 84
e 15 61
e 15 72
e 15 82
e 15 87
e 15 88
e 16 49
e 16 50
e 17 37
e 17 49
e 17 66
e 17 93
e 18 83
e 18 94
e 18 95
e 19 23
e 19 31
e 19 55
e 20 59
e 20 65
e 20 84
e 20 92
e 21 22
e 21 41
e 21 71
e 22 27
e 23 31
e 23 52
e 23 58
e 23 91
e 24 26
e 24 39
e 24 44
e 25 47
e 25 61
e 25 72
e 26 39
e 26 97
e 27 92
e 28 54
e 28 83
e 28 85
e 28 98
e 29 50
e 29 51
e 29 75
e 30 64
e 30 70
e 30 89
e 31 42
e 31 58
e 32 52
e 32 70
e 32 89
e 32 91
e 33 42
e 33 58
e 33 62
e 33 65
e 33 84
e 34 75
e 34 77
e 34 85
e 34 88
e 35 40
e 35 52
e 35 89
e 36 50
e 36 74
e 36 81
e 37 53
e 37 62
e 37 66
e 37 73
e 37 93
e 38 46
e 38 67
e 38 95
e 39 44
e 39 54
e 39 67
e 39 97
e 40 55
e 41 59
e 41 79
e 42 65
e 43 63
e 43 64
e 43 66
e 44 47
e 44 54
e 44 98
e 45 75
e 45 83
e 45 85
e 46 48
e 46 94
e 46 95
e 46 96
e 47 61
e 47 98
e 48 76
e 48 78
e 48 86
e 48 94
e 49 66
e 51 75
e 51 77
e 51 80
e 52 55
e 53 62
e 53 79
e 53 93
e 54 67
e 54 98
e 56 90
e 57 64
e 57 74
e 57 81
e 59 79
e 59 84
e 60 71
e 60 76
e 60 86
e 61 72
e 61 88
e 61 98
e 62 73
e 63 66
e 63 70
e 63 73
e 63 91
e 64 70
e 64 81
e 65 84
e 66 73
e 67 97
e 68 76
e 68 78
e 68 79
e 68 93
e 69 80
e 72 87
e 75 85
e 76 78
e 77 80
e 77 90
e 78 94
e 82 87
e 82 90
e 83 95
e 85 88
e 86 96
e 88 98
e 94 95
c k 4
